number of jobs, number of machines, initial seed, upper bound and lower bound :
20           10   0000        0000        0000
processing times :
 21 11 6 35 71 90 80 79 26 89 56 77 71 69 51 55 84 53 32 46
 42 92 17 86 10 16 89 97 65 73 84 88 98 83 84 25 5 37 75 41
 61 87 54 65 49 65 64 59 77 6 61 16 76 44 58 60 60 10 30 39
 22 68 45 87 31 34 95 48 24 1 7 58 71 37 11 73 27 28 90 32
 74 67 65 41 56 14 92 58 31 43 46 65 83 51 32 85 32 67 94 78
 46 98 83 45 14 85 85 64 94 60 13 22 46 74 69 11 75 68 45 41
 28 33 50 45 22 19 31 92 18 70 21 19 97 82 67 53 99 21 48 69
 74 67 10 6 48 92 89 54 89 64 74 49 80 62 26 46 54 71 25 90
 46 18 43 94 59 42 62 55 85 88 8 85 36 39 67 24 92 99 89 79
 57 84 7 38 3 50 59 90 36 30 6 52 81 14 83 87 30 24 97 51
